language ESSENCE' 1.0

letting jobs = 102
letting horizon = 793
letting resourcesRenew = 2
letting resourcesNonrenew = 2
letting resourceLimits = [18, 16, 519, 526]
letting successors = [[2, 3, 4, 5, 6, 7, 8, 10], [21, 17, 13, 12, 11, 9], [24, 23, 15, 12, 11, 9], [34, 23, 18, 16, 14, 13, 11], [21, 16, 11, 9], [28, 25, 23, 20, 19, 18, 17, 15], [11, 9], [28, 26, 23, 21, 20, 19, 18], [28, 26, 22, 20, 19, 18], [34, 33, 28, 22, 20], [36, 33, 31, 30, 28, 26, 25], [36, 33, 29, 28, 27, 26, 20], [38, 33, 32, 30, 29, 22], [36, 31, 30, 28, 26, 25], [36, 33, 30, 29, 27, 26], [36, 33, 29, 27, 20], [42, 38, 36, 35, 32, 31, 29], [46, 38, 36, 33, 30, 27], [46, 43, 42, 36, 35, 32, 31], [46, 41, 38, 35, 32, 30], [46, 38, 34, 32, 31], [46, 36, 31, 27], [38, 29, 27], [46, 43, 38, 36, 35, 31], [38, 32, 29], [46, 41, 38, 32], [52, 43, 42, 41, 37, 35], [52, 44, 43, 42, 40, 35], [61, 52, 51, 48, 46, 45, 44, 43, 41, 40], [52, 45, 44, 43, 42, 40, 39], [52, 45, 44, 41, 40, 39], [52, 44, 39, 37], [44, 42, 39, 37], [60, 59, 53, 51, 49, 45, 43, 42], [50, 49, 45, 39], [64, 61, 60, 59, 55, 54, 53, 51, 47, 44], [64, 60, 59, 51, 50, 49, 48, 47, 45], [61, 60, 59, 50, 48, 47, 45, 44], [66, 64, 61, 59, 57, 54, 53, 51, 48, 47], [72, 60, 59, 54, 53, 50, 49, 47], [72, 66, 64, 56, 55, 50, 49], [66, 62, 61, 55, 50, 47], [82, 67, 66, 64, 63, 62, 58, 57, 56, 55], [72, 71, 68, 66, 58, 49], [72, 69, 66, 62, 57, 56, 54], [66, 62, 54, 50], [75, 67, 63, 58, 56], [68, 67, 65, 63, 55], [82, 74, 63, 62, 57], [75, 74, 69, 65, 63], [75, 74, 65, 63, 62], [82, 68, 56], [82, 75, 69, 68, 63], [84, 82, 78, 75, 74, 71, 70, 68], [83, 80, 79, 76, 75, 74, 73, 70, 69], [83, 80, 78, 74, 70, 65], [83, 80, 78, 75, 70, 65], [80, 74, 70, 69, 65], [83, 82, 79, 77, 75, 69, 68], [88, 84, 83, 82, 80, 79, 78, 76, 75, 74, 73], [84, 82, 80, 79, 78, 70, 68], [84, 83, 80, 79, 78, 76, 73, 70], [84, 83, 80, 79, 78, 76, 70], [84, 80, 79, 78, 77, 68], [88, 86, 85, 84, 79, 77, 76, 73], [88, 86, 80, 79, 78, 76], [90, 88, 84, 83, 80, 76], [101, 99, 90, 88, 87, 86, 85, 76], [90, 88, 87, 86, 84, 81, 78], [101, 89, 88, 86, 81, 77], [88, 80, 73], [100, 95, 88, 86, 84, 77], [101, 99, 97, 90, 89, 87, 81], [101, 99, 97, 86, 81], [101, 99, 98, 97, 95, 94, 90, 89, 87], [97, 93, 89, 81], [99, 97, 96, 94, 90, 87], [101, 99, 97, 96, 95, 93, 92, 91], [100, 98, 95, 93, 92, 90, 89], [101, 99, 95, 94, 91, 87], [100, 98, 96, 95, 94, 92, 91], [97, 96, 94, 92, 90], [100, 98, 95, 92, 91], [96, 94, 93, 89], [96, 94, 93, 89], [98, 93, 91], [93, 92], [97, 92], [91], [91], [102], [102], [102], [102], [102], [102], [102], [102], [102], [102], [102], []]
letting durations = [[0], [4, 4, 6], [3, 5, 9], [1, 2, 4], [5, 6, 10], [1, 6, 8], [3, 7, 8], [1, 7, 8], [1, 2, 3], [2, 3, 4], [1, 2, 5], [2, 7, 10], [1, 8, 9], [4, 7, 8], [4, 9, 10], [3, 4, 6], [6, 6, 10], [4, 7, 10], [8, 8, 9], [3, 8, 10], [6, 9, 10], [4, 5, 7], [1, 8, 10], [4, 7, 9], [2, 3, 4], [1, 4, 6], [6, 7, 8], [3, 6, 8], [1, 3, 8], [5, 10, 10], [1, 2, 9], [3, 4, 5], [7, 9, 10], [2, 8, 10], [4, 7, 10], [3, 4, 9], [3, 8, 9], [2, 7, 9], [2, 3, 4], [2, 8, 8], [4, 6, 6], [2, 4, 7], [3, 7, 8], [6, 9, 10], [5, 8, 10], [1, 5, 10], [4, 5, 9], [3, 5, 6], [2, 6, 8], [5, 6, 9], [6, 9, 10], [1, 4, 5], [1, 5, 8], [2, 8, 9], [5, 6, 9], [2, 3, 5], [8, 9, 10], [2, 5, 7], [4, 5, 9], [2, 3, 5], [1, 3, 9], [3, 5, 5], [4, 5, 10], [4, 8, 9], [1, 3, 7], [4, 5, 6], [2, 4, 7], [2, 5, 5], [3, 4, 9], [5, 7, 7], [2, 4, 8], [5, 6, 6], [4, 8, 9], [3, 4, 9], [5, 8, 10], [4, 5, 7], [1, 6, 8], [1, 2, 8], [4, 7, 10], [1, 3, 5], [2, 9, 9], [4, 5, 7], [7, 9, 10], [4, 7, 8], [1, 6, 8], [4, 5, 8], [3, 6, 7], [4, 7, 9], [1, 2, 10], [5, 8, 10], [5, 5, 8], [1, 7, 8], [3, 6, 7], [2, 3, 8], [3, 5, 10], [2, 5, 8], [2, 4, 6], [2, 5, 5], [3, 3, 4], [6, 9, 10], [2, 6, 9], [0]]
letting resourceUsage = [[[0, 0, 0, 0]], [[0, 2, 4, 5], [4, 0, 4, 4], [0, 1, 2, 4]], [[4, 0, 7, 5], [0, 4, 6, 4], [0, 4, 4, 3]], [[0, 4, 5, 9], [1, 0, 4, 8], [1, 0, 3, 8]], [[4, 0, 6, 8], [4, 0, 4, 7], [0, 3, 3, 7]], [[0, 3, 6, 9], [0, 2, 3, 8], [0, 1, 2, 6]], [[2, 0, 7, 3], [1, 0, 5, 2], [0, 1, 5, 2]], [[0, 4, 9, 9], [0, 4, 6, 8], [0, 3, 5, 6]], [[0, 4, 6, 8], [0, 3, 4, 5], [0, 2, 3, 3]], [[3, 0, 2, 10], [3, 0, 2, 9], [3, 0, 2, 8]], [[3, 0, 8, 6], [2, 0, 7, 5], [0, 4, 7, 3]], [[4, 0, 8, 4], [3, 0, 8, 3], [0, 5, 8, 3]], [[0, 4, 5, 3], [2, 0, 4, 3], [2, 0, 1, 3]], [[0, 2, 10, 10], [2, 0, 8, 8], [2, 0, 8, 6]], [[4, 0, 9, 10], [0, 4, 9, 9], [2, 0, 8, 9]], [[4, 0, 6, 9], [0, 2, 6, 6], [4, 0, 6, 5]], [[2, 0, 9, 5], [0, 2, 7, 5], [0, 2, 6, 4]], [[0, 5, 9, 7], [0, 4, 8, 7], [0, 4, 4, 1]], [[2, 0, 8, 3], [0, 2, 6, 3], [0, 2, 2, 3]], [[5, 0, 7, 9], [0, 2, 5, 7], [0, 2, 2, 4]], [[3, 0, 8, 6], [3, 0, 7, 4], [0, 3, 4, 4]], [[4, 0, 2, 8], [0, 1, 2, 7], [0, 1, 2, 6]], [[4, 0, 10, 6], [4, 0, 9, 5], [0, 1, 9, 4]], [[2, 0, 10, 6], [2, 0, 5, 5], [2, 0, 4, 1]], [[4, 0, 1, 6], [3, 0, 1, 6], [3, 0, 1, 5]], [[2, 0, 7, 10], [2, 0, 5, 8], [0, 1, 5, 7]], [[4, 0, 6, 2], [0, 1, 5, 1], [0, 1, 1, 1]], [[0, 5, 3, 5], [2, 0, 3, 3], [1, 0, 3, 3]], [[4, 0, 10, 8], [4, 0, 9, 8], [4, 0, 9, 7]], [[2, 0, 5, 7], [1, 0, 5, 7], [0, 3, 5, 7]], [[0, 5, 4, 9], [0, 4, 3, 9], [0, 3, 1, 9]], [[0, 2, 5, 5], [2, 0, 3, 2], [2, 0, 2, 2]], [[0, 5, 6, 5], [0, 3, 6, 4], [1, 0, 3, 3]], [[5, 0, 10, 2], [0, 3, 8, 1], [4, 0, 6, 1]], [[0, 3, 9, 6], [2, 0, 4, 5], [0, 1, 1, 4]], [[0, 4, 3, 6], [1, 0, 2, 5], [0, 4, 2, 4]], [[0, 5, 9, 9], [2, 0, 9, 8], [1, 0, 8, 6]], [[0, 2, 9, 7], [4, 0, 8, 4], [3, 0, 6, 3]], [[3, 0, 5, 8], [2, 0, 5, 7], [0, 2, 2, 6]], [[2, 0, 9, 7], [2, 0, 9, 6], [0, 4, 9, 6]], [[0, 4, 5, 6], [0, 3, 4, 5], [3, 0, 2, 3]], [[2, 0, 4, 3], [0, 1, 2, 3], [2, 0, 2, 2]], [[0, 1, 7, 6], [0, 1, 5, 6], [0, 1, 4, 3]], [[0, 2, 5, 7], [0, 2, 4, 7], [0, 2, 2, 5]], [[0, 3, 7, 3], [5, 0, 6, 2], [5, 0, 4, 2]], [[0, 3, 10, 7], [3, 0, 4, 5], [2, 0, 2, 2]], [[4, 0, 3, 9], [4, 0, 3, 6], [4, 0, 3, 4]], [[0, 1, 6, 5], [0, 1, 6, 4], [3, 0, 6, 5]], [[0, 3, 6, 6], [0, 2, 3, 6], [2, 0, 1, 2]], [[5, 0, 4, 9], [3, 0, 3, 8], [0, 3, 2, 7]], [[3, 0, 9, 4], [2, 0, 5, 3], [2, 0, 3, 3]], [[0, 4, 7, 5], [2, 0, 7, 2], [2, 0, 5, 2]], [[0, 4, 4, 2], [0, 3, 3, 2], [0, 2, 2, 2]], [[3, 0, 8, 3], [0, 3, 6, 3], [1, 0, 5, 3]], [[3, 0, 9, 6], [3, 0, 7, 6], [2, 0, 7, 4]], [[0, 4, 9, 4], [0, 2, 8, 4], [1, 0, 6, 2]], [[0, 3, 6, 8], [0, 3, 5, 6], [0, 2, 3, 5]], [[0, 2, 3, 9], [0, 2, 2, 9], [2, 0, 2, 8]], [[3, 0, 3, 6], [3, 0, 3, 5], [3, 0, 2, 4]], [[2, 0, 6, 9], [1, 0, 6, 6], [1, 0, 4, 5]], [[3, 0, 8, 6], [0, 4, 7, 6], [1, 0, 4, 4]], [[0, 3, 5, 6], [0, 2, 4, 4], [3, 0, 3, 2]], [[0, 4, 6, 7], [1, 0, 4, 7], [0, 4, 3, 5]], [[0, 5, 9, 7], [1, 0, 6, 6], [0, 4, 5, 5]], [[0, 3, 5, 7], [0, 2, 5, 3], [1, 0, 4, 2]], [[0, 5, 1, 7], [0, 5, 1, 6], [1, 0, 1, 7]], [[4, 0, 2, 10], [3, 0, 2, 9], [3, 0, 2, 8]], [[4, 0, 5, 5], [0, 2, 3, 5], [2, 0, 2, 1]], [[0, 3, 9, 9], [3, 0, 6, 7], [2, 0, 3, 5]], [[0, 1, 4, 4], [0, 1, 2, 2], [4, 0, 2, 2]], [[0, 5, 8, 10], [2, 0, 7, 9], [0, 3, 7, 9]], [[0, 1, 7, 6], [0, 1, 7, 5], [2, 0, 7, 3]], [[4, 0, 8, 6], [3, 0, 6, 4], [2, 0, 5, 2]], [[0, 5, 8, 10], [3, 0, 6, 10], [0, 4, 6, 10]], [[0, 3, 5, 9], [3, 0, 4, 7], [0, 2, 2, 6]], [[4, 0, 6, 5], [4, 0, 6, 4], [4, 0, 5, 5]], [[3, 0, 7, 5], [3, 0, 6, 4], [2, 0, 5, 1]], [[0, 4, 7, 4], [0, 4, 7, 3], [0, 3, 7, 3]], [[2, 0, 6, 9], [0, 3, 5, 7], [1, 0, 4, 6]], [[4, 0, 8, 6], [0, 2, 8, 4], [0, 2, 8, 2]], [[2, 0, 10, 8], [0, 2, 8, 5], [1, 0, 7, 1]], [[3, 0, 5, 7], [0, 4, 4, 6], [2, 0, 4, 5]], [[3, 0, 7, 3], [3, 0, 7, 2], [0, 1, 6, 3]], [[4, 0, 8, 9], [3, 0, 6, 6], [0, 2, 5, 2]], [[0, 4, 3, 5], [0, 3, 2, 3], [0, 2, 2, 2]], [[4, 0, 8, 4], [3, 0, 6, 3], [2, 0, 2, 3]], [[4, 0, 3, 7], [4, 0, 3, 5], [3, 0, 3, 4]], [[0, 4, 10, 6], [0, 2, 7, 5], [0, 2, 6, 4]], [[3, 0, 5, 3], [0, 3, 4, 3], [0, 3, 3, 3]], [[0, 5, 7, 7], [2, 0, 3, 7], [0, 3, 3, 3]], [[3, 0, 7, 4], [0, 2, 6, 4], [2, 0, 6, 4]], [[2, 0, 4, 7], [2, 0, 3, 5], [2, 0, 2, 5]], [[4, 0, 10, 7], [0, 2, 8, 5], [0, 2, 6, 2]], [[5, 0, 3, 4], [4, 0, 3, 2], [4, 0, 3, 1]], [[0, 4, 7, 6], [2, 0, 7, 3], [2, 0, 3, 2]], [[3, 0, 7, 7], [0, 1, 5, 7], [0, 1, 4, 5]], [[4, 0, 6, 4], [3, 0, 4, 4], [0, 1, 3, 1]], [[0, 5, 3, 7], [4, 0, 3, 3], [0, 3, 1, 3]], [[4, 0, 7, 9], [0, 4, 6, 8], [0, 4, 6, 7]], [[3, 0, 7, 4], [2, 0, 7, 3], [0, 2, 7, 2]], [[0, 3, 5, 9], [1, 0, 4, 8], [0, 2, 2, 8]], [[0, 0, 0, 0]]]
